NAME : mEgtspf
TYPE : AGTSP
DIMENSION : 27
GTSP_SETS : 9
EDGE_WEIGHT_TYPE : EXPLICIT
EDGE_WEIGHT_FORMAT : FULL_MATRIX
EDGE_WEIGHT_SECTION
0 0 0 19 20 19 18 45 46 45 44 42 43 42 41 21 22 21 20 29 30 29 28 34 35 34 33
0 0 0 15 14 15 16 15 16 17 16 12 13 14 13 13 12 13 14 9 10 11 10 10 11 10 9
0 0 0 35 34 35 36 25 26 27 26 22 23 24 23 19 18 19 20 29 28 29 30 14 15 16 15
0 0 0 0 0 0 0 28 29 28 27 25 26 25 24 20 19 18 19 12 13 12 11 25 24 23 24
0 0 0 0 0 0 0 29 30 29 28 26 27 26 25 19 20 19 18 13 14 13 12 24 25 24 23
0 0 0 0 0 0 0 28 29 30 29 25 26 27 26 18 19 18 17 12 13 14 13 23 24 23 22
0 0 0 0 0 0 0 27 28 29 28 24 25 26 25 19 18 17 18 11 12 13 12 24 23 22 23
0 0 0 30 29 28 29 0 0 0 0 9 8 7 8 28 27 26 27 20 19 18 19 15 14 13 14
0 0 0 29 28 27 28 0 0 0 0 8 9 8 7 27 26 25 26 19 18 17 18 14 13 12 13
0 0 0 28 27 28 29 0 0 0 0 7 8 7 6 26 25 26 27 18 17 18 19 13 12 13 14
0 0 0 29 28 29 30 0 0 0 0 8 7 6 7 27 26 27 28 19 18 19 20 14 13 14 15
0 0 0 27 26 25 26 7 6 7 8 0 0 0 0 25 24 23 24 17 16 15 16 12 11 10 11
0 0 0 26 25 24 25 6 7 8 7 0 0 0 0 24 23 22 23 16 15 14 15 11 10 9 10
0 0 0 25 24 25 26 7 8 9 8 0 0 0 0 23 22 23 24 15 14 15 16 10 9 10 11
0 0 0 26 25 26 27 8 7 8 9 0 0 0 0 24 23 24 25 16 15 16 17 11 10 11 12
0 0 0 18 17 18 19 26 27 26 25 23 24 23 22 0 0 0 0 12 11 12 13 15 16 15 14
0 0 0 17 18 19 18 27 28 27 26 24 25 24 23 0 0 0 0 11 12 13 12 16 17 16 15
0 0 0 18 19 20 19 26 27 28 27 23 24 25 24 0 0 0 0 12 13 14 13 15 16 17 16
0 0 0 19 18 19 20 25 26 27 26 22 23 24 23 0 0 0 0 13 12 13 14 14 15 16 15
0 0 0 14 13 12 13 18 19 18 17 15 16 15 14 14 13 12 13 0 0 0 0 19 18 17 18
0 0 0 13 12 11 12 19 20 19 18 16 17 16 15 13 14 13 12 0 0 0 0 18 19 18 17
0 0 0 12 11 12 13 18 19 20 19 15 16 17 16 12 13 12 11 0 0 0 0 17 18 17 16
0 0 0 13 12 13 14 17 18 19 18 14 15 16 15 13 12 11 12 0 0 0 0 18 17 16 17
0 0 0 23 22 23 24 13 14 13 12 10 11 10 9 17 16 15 16 17 16 17 18 0 0 0 0
0 0 0 22 23 24 23 14 15 14 13 11 12 11 10 16 15 14 15 16 17 18 17 0 0 0 0
0 0 0 23 24 25 24 13 14 15 14 10 11 12 11 15 14 15 16 17 18 19 18 0 0 0 0
0 0 0 24 23 24 25 12 13 14 13 9 10 11 10 16 15 16 17 18 17 18 19 0 0 0 0
GTSP_SET_SECTION
1 1 -1
2 2 -1
3 3 -1
4 4 5 6 7 -1
5 8 9 10 11 -1
6 12 13 14 15 -1
7 16 17 18 19 -1
8 20 21 22 23 -1
9 24 25 26 27 -1
